39 3 62 20 77 33 88 43 95 48 98 49 96 44 87 34 75 99 2 19 0 29 10 23 80 31 91 36 56 74 32 18 50 41 76 70 85 13 14 25 17 82 16 68 35 71 65 90 4 66 30 81 45 24 38 6 11 58 37 64 52 21 63 53 26 94 42 7 92 27 93 97 15 22 73 79 67 40 60 72 57 1 86 78 55 28 51 12 47 54 83 59 5 61 9 84 89 8 46 69 

